; Options: -in -smt2
(set-option :produce-unsat-assumptions true)

(declare-fun start!2659 () Bool)

(assert start!2659)

(declare-fun b!14571 () Bool)

(declare-fun res!11263 () Bool)

(declare-fun e!8273 () Bool)

(assert (=> b!14571 (=> (not res!11263) (not e!8273))))

(declare-fun i!142 () (_ BitVec 32))

(declare-fun carry!33 () (_ BitVec 32))

(declare-datatypes ((array!1150 0))(
  ( (array!1151 (arr!507 (Array (_ BitVec 32) (_ BitVec 32))) (size!507 (_ BitVec 32))) )
))
(declare-fun iq!76 () array!1150)

(declare-fun jz!20 () (_ BitVec 32))

(assert (=> b!14571 (= res!11263 (and (bvsge (select (arr!507 iq!76) (bvsub jz!20 #b00000000000000000000000000000001)) #b00000000100000000000000000000000) (or (= carry!33 #b00000000000000000000000000000000) (= carry!33 #b00000000000000000000000000000001)) (bvslt i!142 (bvsub jz!20 #b00000000000000000000000000000001))))))

(declare-fun b!14572 () Bool)

(declare-fun e!8272 () Bool)

(assert (=> b!14572 (= e!8272 e!8273)))

(declare-fun res!11258 () Bool)

(assert (=> b!14572 (=> (not res!11258) (not e!8273))))

(declare-fun lt!7760 () (_ FloatingPoint 11 53))

(declare-datatypes ((Unit!1576 0))(
  ( (Unit!1577) )
))
(declare-datatypes ((tuple4!392 0))(
  ( (tuple4!393 (_1!390 Unit!1576) (_2!390 array!1150) (_3!327 (_ BitVec 32)) (_4!196 (_ FloatingPoint 11 53))) )
))
(declare-fun lt!7755 () tuple4!392)

(assert (=> b!14572 (= res!11258 (and (fp.leq (fp #b0 #b00000000000 #b0000000000000000000000000000000000000000000000000000) lt!7760) (fp.lt lt!7760 (fp #b0 #b10000000010 #b0000000000000000000000000000000000000000000000000000)) (bvsge (select (arr!507 (_2!390 lt!7755)) (bvsub jz!20 #b00000000000000000000000000000001)) #b00000000100000000000000000000000) (bvsle #b00000000000000000000000000000000 i!142) (bvsle i!142 (bvsub jz!20 #b00000000000000000000000000000001))))))

(assert (=> b!14572 (= lt!7760 (fp.sub roundNearestTiesToEven (_4!196 lt!7755) (fp.mul roundNearestTiesToEven (fp #b0 #b10000000010 #b0000000000000000000000000000000000000000000000000000) ((_ to_fp 11 53) roundNearestTiesToEven (ite (fp.isNaN (fp.mul roundNearestTiesToEven (_4!196 lt!7755) (fp #b0 #b01111111100 #b0000000000000000000000000000000000000000000000000000))) #b0000000000000000000000000000000000000000000000000000000000000000 (ite (fp.gt (fp.mul roundNearestTiesToEven (_4!196 lt!7755) (fp #b0 #b01111111100 #b0000000000000000000000000000000000000000000000000000)) ((_ to_fp 11 53) roundTowardZero #b0111111111111111111111111111111111111111111111111111111111111111)) #b0111111111111111111111111111111111111111111111111111111111111111 (ite (fp.lt (fp.mul roundNearestTiesToEven (_4!196 lt!7755) (fp #b0 #b01111111100 #b0000000000000000000000000000000000000000000000000000)) ((_ to_fp 11 53) roundTowardZero #b1000000000000000000000000000000000000000000000000000000000000000)) #b1000000000000000000000000000000000000000000000000000000000000000 ((_ fp.to_sbv 64) roundTowardZero (fp.mul roundNearestTiesToEven (_4!196 lt!7755) (fp #b0 #b01111111100 #b0000000000000000000000000000000000000000000000000000))))))))))))

(declare-fun e!8269 () tuple4!392)

(assert (=> b!14572 (= lt!7755 e!8269)))

(declare-fun c!1868 () Bool)

(assert (=> b!14572 (= c!1868 (bvsgt jz!20 #b00000000000000000000000000000000))))

(declare-fun lt!7758 () (_ FloatingPoint 11 53))

(declare-datatypes ((array!1152 0))(
  ( (array!1153 (arr!508 (Array (_ BitVec 32) (_ FloatingPoint 11 53))) (size!508 (_ BitVec 32))) )
))
(declare-fun q!31 () array!1152)

(assert (=> b!14572 (= lt!7758 (select (arr!508 q!31) jz!20))))

(declare-fun lt!7754 () array!1150)

(assert (=> b!14572 (= lt!7754 (array!1151 ((as const (Array (_ BitVec 32) (_ BitVec 32))) #b00000000000000000000000000000000) #b00000000000000000000000000010100))))

(declare-fun b!14573 () Bool)

(declare-fun e!8268 () Bool)

(declare-fun e!8266 () Bool)

(assert (=> b!14573 (= e!8268 e!8266)))

(declare-fun res!11259 () Bool)

(assert (=> b!14573 (=> (not res!11259) (not e!8266))))

(declare-datatypes ((tuple4!394 0))(
  ( (tuple4!395 (_1!391 Unit!1576) (_2!391 (_ BitVec 32)) (_3!328 array!1150) (_4!197 (_ BitVec 32))) )
))
(declare-fun lt!7756 () tuple4!394)

(assert (=> b!14573 (= res!11259 (and (bvsle #b00000000000000000000000000000000 (_2!391 lt!7756)) (bvsle (_2!391 lt!7756) (bvsub jz!20 #b00000000000000000000000000000001))))))

(declare-fun lt!7761 () (_ BitVec 32))

(declare-fun lt!7759 () (_ BitVec 32))

(declare-fun computeModuloWhile!3 ((_ BitVec 32) array!1152 (_ BitVec 32) array!1150 (_ BitVec 32)) tuple4!394)

(assert (=> b!14573 (= lt!7756 (computeModuloWhile!3 jz!20 q!31 lt!7761 (array!1151 (store (arr!507 iq!76) i!142 (ite (= carry!33 #b00000000000000000000000000000000) (ite (not (= lt!7759 #b00000000000000000000000000000000)) (bvsub #b00000001000000000000000000000000 lt!7759) #b00000000000000000000000000000000) (bvsub #b00000000111111111111111111111111 lt!7759))) (size!507 iq!76)) (ite (and (= carry!33 #b00000000000000000000000000000000) (not (= lt!7759 #b00000000000000000000000000000000))) #b00000000000000000000000000000001 carry!33)))))

(declare-fun b!14574 () Bool)

(declare-fun Unit!1578 () Unit!1576)

(assert (=> b!14574 (= e!8269 (tuple4!393 Unit!1578 lt!7754 jz!20 lt!7758))))

(declare-fun b!14575 () Bool)

(declare-fun lt!7757 () (_ BitVec 32))

(assert (=> b!14575 (= e!8266 (or (bvslt lt!7757 #b00000000000000000000000000000000) (bvsge lt!7757 (size!507 (_3!328 lt!7756)))))))

(assert (=> b!14575 (= lt!7757 (bvsub jz!20 #b00000000000000000000000000000001))))

(declare-fun res!11265 () Bool)

(assert (=> start!2659 (=> (not res!11265) (not e!8272))))

(assert (=> start!2659 (= res!11265 (and (bvsle #b00000000000000000000000000000010 jz!20) (bvslt jz!20 #b00000000000000000000000000010011)))))

(assert (=> start!2659 e!8272))

(assert (=> start!2659 true))

(declare-fun array_inv!455 (array!1152) Bool)

(assert (=> start!2659 (array_inv!455 q!31)))

(declare-fun array_inv!456 (array!1150) Bool)

(assert (=> start!2659 (array_inv!456 iq!76)))

(declare-fun b!14576 () Bool)

(declare-fun res!11264 () Bool)

(assert (=> b!14576 (=> (not res!11264) (not e!8273))))

(declare-fun iqInv!0 (array!1150) Bool)

(assert (=> b!14576 (= res!11264 (iqInv!0 iq!76))))

(declare-fun b!14577 () Bool)

(declare-fun e!8270 () Bool)

(assert (=> b!14577 (= e!8270 e!8268)))

(declare-fun res!11261 () Bool)

(assert (=> b!14577 (=> (not res!11261) (not e!8268))))

(assert (=> b!14577 (= res!11261 (bvslt lt!7761 (bvsub jz!20 #b00000000000000000000000000000001)))))

(assert (=> b!14577 (= lt!7761 (bvadd i!142 #b00000000000000000000000000000001))))

(declare-fun b!14578 () Bool)

(declare-fun res!11260 () Bool)

(assert (=> b!14578 (=> (not res!11260) (not e!8266))))

(assert (=> b!14578 (= res!11260 (iqInv!0 (_3!328 lt!7756)))))

(declare-fun b!14579 () Bool)

(declare-fun res!11262 () Bool)

(assert (=> b!14579 (=> (not res!11262) (not e!8272))))

(declare-fun qInv!0 (array!1152) Bool)

(assert (=> b!14579 (= res!11262 (qInv!0 q!31))))

(declare-fun b!14580 () Bool)

(assert (=> b!14580 (= e!8273 e!8270)))

(declare-fun res!11257 () Bool)

(assert (=> b!14580 (=> (not res!11257) (not e!8270))))

(declare-fun QInt!0 ((_ BitVec 32)) Bool)

(assert (=> b!14580 (= res!11257 (QInt!0 lt!7759))))

(assert (=> b!14580 (= lt!7759 (select (arr!507 iq!76) i!142))))

(declare-fun b!14581 () Bool)

(declare-fun computeModuloWhile!0 ((_ BitVec 32) array!1152 array!1150 (_ BitVec 32) (_ FloatingPoint 11 53)) tuple4!392)

(assert (=> b!14581 (= e!8269 (computeModuloWhile!0 jz!20 q!31 lt!7754 jz!20 lt!7758))))

(assert (= (and start!2659 res!11265) b!14579))

(assert (= (and b!14579 res!11262) b!14572))

(assert (= (and b!14572 c!1868) b!14581))

(assert (= (and b!14572 (not c!1868)) b!14574))

(assert (= (and b!14572 res!11258) b!14576))

(assert (= (and b!14576 res!11264) b!14571))

(assert (= (and b!14571 res!11263) b!14580))

(assert (= (and b!14580 res!11257) b!14577))

(assert (= (and b!14577 res!11261) b!14573))

(assert (= (and b!14573 res!11259) b!14578))

(assert (= (and b!14578 res!11260) b!14575))

(declare-fun m!22065 () Bool)

(assert (=> b!14571 m!22065))

(declare-fun m!22067 () Bool)

(assert (=> start!2659 m!22067))

(declare-fun m!22069 () Bool)

(assert (=> start!2659 m!22069))

(declare-fun m!22071 () Bool)

(assert (=> b!14579 m!22071))

(declare-fun m!22073 () Bool)

(assert (=> b!14580 m!22073))

(declare-fun m!22075 () Bool)

(assert (=> b!14580 m!22075))

(declare-fun m!22077 () Bool)

(assert (=> b!14581 m!22077))

(declare-fun m!22079 () Bool)

(assert (=> b!14573 m!22079))

(declare-fun m!22081 () Bool)

(assert (=> b!14573 m!22081))

(declare-fun m!22083 () Bool)

(assert (=> b!14576 m!22083))

(declare-fun m!22085 () Bool)

(assert (=> b!14572 m!22085))

(declare-fun m!22087 () Bool)

(assert (=> b!14572 m!22087))

(declare-fun m!22089 () Bool)

(assert (=> b!14578 m!22089))

(check-sat (not b!14578) (not b!14580) (not b!14581) (not b!14576) (not start!2659) (not b!14573) (not b!14579))
(check-sat)
(get-model)

(declare-fun e!8280 () tuple4!392)

(declare-fun lt!7772 () (_ BitVec 32))

(declare-fun b!14594 () Bool)

(declare-fun lt!7773 () array!1150)

(declare-fun lt!7774 () (_ FloatingPoint 11 53))

(assert (=> b!14594 (= e!8280 (computeModuloWhile!0 jz!20 q!31 lt!7773 lt!7772 lt!7774))))

(declare-fun b!14595 () Bool)

(declare-fun res!11276 () Bool)

(declare-fun e!8282 () Bool)

(assert (=> b!14595 (=> (not res!11276) (not e!8282))))

(assert (=> b!14595 (= res!11276 (iqInv!0 lt!7754))))

(declare-fun b!14596 () Bool)

(declare-fun Unit!1579 () Unit!1576)

(assert (=> b!14596 (= e!8280 (tuple4!393 Unit!1579 lt!7773 lt!7772 lt!7774))))

(declare-fun d!5855 () Bool)

(declare-fun e!8281 () Bool)

(assert (=> d!5855 e!8281))

(declare-fun res!11277 () Bool)

(assert (=> d!5855 (=> (not res!11277) (not e!8281))))

(declare-fun lt!7776 () tuple4!392)

(assert (=> d!5855 (= res!11277 (and true true (bvsle #b00000000000000000000000000000000 (_3!327 lt!7776)) (bvsle (_3!327 lt!7776) jz!20) (fp.leq (fp #b0 #b00000000000 #b0000000000000000000000000000000000000000000000000000) (_4!196 lt!7776)) (fp.leq (_4!196 lt!7776) (fp #b0 #b10000110001 #b0100000000000000000000010011111111111111111111111100))))))

(assert (=> d!5855 (= lt!7776 e!8280)))

(declare-fun c!1871 () Bool)

(assert (=> d!5855 (= c!1871 (bvsgt lt!7772 #b00000000000000000000000000000000))))

(assert (=> d!5855 (= lt!7772 (bvsub jz!20 #b00000000000000000000000000000001))))

(declare-fun lt!7775 () (_ FloatingPoint 11 53))

(assert (=> d!5855 (= lt!7774 (fp.add roundNearestTiesToEven (select (arr!508 q!31) (bvsub jz!20 #b00000000000000000000000000000001)) lt!7775))))

(assert (=> d!5855 (= lt!7773 (array!1151 (store (arr!507 lt!7754) (bvsub jz!20 jz!20) (ite (fp.isNaN (fp.sub roundNearestTiesToEven lt!7758 (fp.mul roundNearestTiesToEven (fp #b0 #b10000010111 #b0000000000000000000000000000000000000000000000000000) lt!7775))) #b00000000000000000000000000000000 (ite (fp.gt (fp.sub roundNearestTiesToEven lt!7758 (fp.mul roundNearestTiesToEven (fp #b0 #b10000010111 #b0000000000000000000000000000000000000000000000000000) lt!7775)) ((_ to_fp 11 53) roundTowardZero #b01111111111111111111111111111111)) #b01111111111111111111111111111111 (ite (fp.lt (fp.sub roundNearestTiesToEven lt!7758 (fp.mul roundNearestTiesToEven (fp #b0 #b10000010111 #b0000000000000000000000000000000000000000000000000000) lt!7775)) ((_ to_fp 11 53) roundTowardZero #b10000000000000000000000000000000)) #b10000000000000000000000000000000 ((_ fp.to_sbv 32) roundTowardZero (fp.sub roundNearestTiesToEven lt!7758 (fp.mul roundNearestTiesToEven (fp #b0 #b10000010111 #b0000000000000000000000000000000000000000000000000000) lt!7775))))))) (size!507 lt!7754)))))

(assert (=> d!5855 (= lt!7775 ((_ to_fp 11 53) roundNearestTiesToEven (ite (fp.isNaN (fp.mul roundNearestTiesToEven (fp #b0 #b01111100111 #b0000000000000000000000000000000000000000000000000000) lt!7758)) #b00000000000000000000000000000000 (ite (fp.gt (fp.mul roundNearestTiesToEven (fp #b0 #b01111100111 #b0000000000000000000000000000000000000000000000000000) lt!7758) ((_ to_fp 11 53) roundTowardZero #b01111111111111111111111111111111)) #b01111111111111111111111111111111 (ite (fp.lt (fp.mul roundNearestTiesToEven (fp #b0 #b01111100111 #b0000000000000000000000000000000000000000000000000000) lt!7758) ((_ to_fp 11 53) roundTowardZero #b10000000000000000000000000000000)) #b10000000000000000000000000000000 ((_ fp.to_sbv 32) roundTowardZero (fp.mul roundNearestTiesToEven (fp #b0 #b01111100111 #b0000000000000000000000000000000000000000000000000000) lt!7758)))))))))

(assert (=> d!5855 e!8282))

(declare-fun res!11274 () Bool)

(assert (=> d!5855 (=> (not res!11274) (not e!8282))))

(assert (=> d!5855 (= res!11274 (and (bvsle #b00000000000000000000000000000000 jz!20) (bvsle jz!20 jz!20) (fp.leq (fp #b0 #b00000000000 #b0000000000000000000000000000000000000000000000000000) lt!7758) (fp.leq lt!7758 (fp #b0 #b10000110001 #b0100000000000000000000010011111111111111111111111100))))))

(assert (=> d!5855 (= (computeModuloWhile!0 jz!20 q!31 lt!7754 jz!20 lt!7758) lt!7776)))

(declare-fun b!14597 () Bool)

(assert (=> b!14597 (= e!8282 (bvsgt jz!20 #b00000000000000000000000000000000))))

(declare-fun b!14598 () Bool)

(declare-fun res!11275 () Bool)

(assert (=> b!14598 (=> (not res!11275) (not e!8281))))

(assert (=> b!14598 (= res!11275 (iqInv!0 (_2!390 lt!7776)))))

(declare-fun b!14599 () Bool)

(assert (=> b!14599 (= e!8281 (bvsle (_3!327 lt!7776) #b00000000000000000000000000000000))))

(assert (= (and d!5855 res!11274) b!14595))

(assert (= (and b!14595 res!11276) b!14597))

(assert (= (and d!5855 c!1871) b!14594))

(assert (= (and d!5855 (not c!1871)) b!14596))

(assert (= (and d!5855 res!11277) b!14598))

(assert (= (and b!14598 res!11275) b!14599))

(declare-fun m!22091 () Bool)

(assert (=> b!14594 m!22091))

(declare-fun m!22093 () Bool)

(assert (=> b!14595 m!22093))

(declare-fun m!22095 () Bool)

(assert (=> d!5855 m!22095))

(declare-fun m!22097 () Bool)

(assert (=> d!5855 m!22097))

(declare-fun m!22099 () Bool)

(assert (=> b!14598 m!22099))

(assert (=> b!14581 d!5855))

(declare-fun d!5857 () Bool)

(assert (=> d!5857 (= (QInt!0 lt!7759) (and (bvsle #b00000000000000000000000000000000 lt!7759) (bvsle lt!7759 #b00000000111111111111111111111111)))))

(assert (=> b!14580 d!5857))

(declare-fun d!5859 () Bool)

(declare-fun res!11280 () Bool)

(declare-fun e!8285 () Bool)

(assert (=> d!5859 (=> (not res!11280) (not e!8285))))

(assert (=> d!5859 (= res!11280 (= (size!508 q!31) #b00000000000000000000000000010100))))

(assert (=> d!5859 (= (qInv!0 q!31) e!8285)))

(declare-fun b!14602 () Bool)

(declare-fun lambda!626 () Int)

(declare-fun all20!0 (array!1152 Int) Bool)

(assert (=> b!14602 (= e!8285 (all20!0 q!31 lambda!626))))

(assert (= (and d!5859 res!11280) b!14602))

(declare-fun m!22101 () Bool)

(assert (=> b!14602 m!22101))

(assert (=> b!14579 d!5859))

(declare-fun d!5861 () Bool)

(declare-fun e!8296 () Bool)

(assert (=> d!5861 e!8296))

(declare-fun res!11293 () Bool)

(assert (=> d!5861 (=> (not res!11293) (not e!8296))))

(declare-fun lt!7797 () tuple4!394)

(assert (=> d!5861 (= res!11293 (and (or (bvsgt #b00000000000000000000000000000000 (_2!391 lt!7797)) (= (bvand jz!20 #b10000000000000000000000000000000) #b00000000000000000000000000000000) (= (bvand jz!20 #b10000000000000000000000000000000) (bvand (bvsub jz!20 #b00000000000000000000000000000001) #b10000000000000000000000000000000))) (bvsle #b00000000000000000000000000000000 (_2!391 lt!7797)) (bvsle (_2!391 lt!7797) (bvsub jz!20 #b00000000000000000000000000000001))))))

(declare-fun e!8294 () tuple4!394)

(assert (=> d!5861 (= lt!7797 e!8294)))

(declare-fun c!1877 () Bool)

(declare-fun lt!7803 () (_ BitVec 32))

(assert (=> d!5861 (= c!1877 (bvslt lt!7803 (bvsub jz!20 #b00000000000000000000000000000001)))))

(assert (=> d!5861 (= lt!7803 (bvadd lt!7761 #b00000000000000000000000000000001))))

(declare-fun lt!7801 () (_ BitVec 32))

(declare-fun lt!7802 () (_ BitVec 32))

(assert (=> d!5861 (= lt!7802 (ite (and (= (ite (and (= carry!33 #b00000000000000000000000000000000) (not (= lt!7759 #b00000000000000000000000000000000))) #b00000000000000000000000000000001 carry!33) #b00000000000000000000000000000000) (not (= lt!7801 #b00000000000000000000000000000000))) #b00000000000000000000000000000001 (ite (and (= carry!33 #b00000000000000000000000000000000) (not (= lt!7759 #b00000000000000000000000000000000))) #b00000000000000000000000000000001 carry!33)))))

(declare-fun lt!7796 () array!1150)

(assert (=> d!5861 (= lt!7796 (array!1151 (store (arr!507 (array!1151 (store (arr!507 iq!76) i!142 (ite (= carry!33 #b00000000000000000000000000000000) (ite (not (= lt!7759 #b00000000000000000000000000000000)) (bvsub #b00000001000000000000000000000000 lt!7759) #b00000000000000000000000000000000) (bvsub #b00000000111111111111111111111111 lt!7759))) (size!507 iq!76))) lt!7761 (ite (= (ite (and (= carry!33 #b00000000000000000000000000000000) (not (= lt!7759 #b00000000000000000000000000000000))) #b00000000000000000000000000000001 carry!33) #b00000000000000000000000000000000) (ite (not (= lt!7801 #b00000000000000000000000000000000)) (bvsub #b00000001000000000000000000000000 lt!7801) #b00000000000000000000000000000000) (bvsub #b00000000111111111111111111111111 lt!7801))) (size!507 (array!1151 (store (arr!507 iq!76) i!142 (ite (= carry!33 #b00000000000000000000000000000000) (ite (not (= lt!7759 #b00000000000000000000000000000000)) (bvsub #b00000001000000000000000000000000 lt!7759) #b00000000000000000000000000000000) (bvsub #b00000000111111111111111111111111 lt!7759))) (size!507 iq!76)))))))

(assert (=> d!5861 (= lt!7801 (select (arr!507 (array!1151 (store (arr!507 iq!76) i!142 (ite (= carry!33 #b00000000000000000000000000000000) (ite (not (= lt!7759 #b00000000000000000000000000000000)) (bvsub #b00000001000000000000000000000000 lt!7759) #b00000000000000000000000000000000) (bvsub #b00000000111111111111111111111111 lt!7759))) (size!507 iq!76))) lt!7761))))

(declare-fun e!8295 () Bool)

(assert (=> d!5861 e!8295))

(declare-fun res!11297 () Bool)

(assert (=> d!5861 (=> (not res!11297) (not e!8295))))

(assert (=> d!5861 (= res!11297 (and (bvsle #b00000000000000000000000000000000 lt!7761) (bvsle lt!7761 (bvsub jz!20 #b00000000000000000000000000000001))))))

(declare-fun lt!7799 () tuple4!392)

(declare-fun e!8297 () tuple4!392)

(assert (=> d!5861 (= lt!7799 e!8297)))

(declare-fun c!1876 () Bool)

(assert (=> d!5861 (= c!1876 (bvsgt jz!20 #b00000000000000000000000000000000))))

(declare-fun lt!7795 () (_ FloatingPoint 11 53))

(assert (=> d!5861 (= lt!7795 (select (arr!508 q!31) jz!20))))

(declare-fun lt!7800 () array!1150)

(assert (=> d!5861 (= lt!7800 (array!1151 ((as const (Array (_ BitVec 32) (_ BitVec 32))) #b00000000000000000000000000000000) #b00000000000000000000000000010100))))

(assert (=> d!5861 (= (computeModuloWhile!3 jz!20 q!31 lt!7761 (array!1151 (store (arr!507 iq!76) i!142 (ite (= carry!33 #b00000000000000000000000000000000) (ite (not (= lt!7759 #b00000000000000000000000000000000)) (bvsub #b00000001000000000000000000000000 lt!7759) #b00000000000000000000000000000000) (bvsub #b00000000111111111111111111111111 lt!7759))) (size!507 iq!76)) (ite (and (= carry!33 #b00000000000000000000000000000000) (not (= lt!7759 #b00000000000000000000000000000000))) #b00000000000000000000000000000001 carry!33)) lt!7797)))

(declare-fun b!14623 () Bool)

(declare-fun res!11296 () Bool)

(assert (=> b!14623 (=> (not res!11296) (not e!8296))))

(assert (=> b!14623 (= res!11296 (iqInv!0 (_3!328 lt!7797)))))

(declare-fun b!14624 () Bool)

(assert (=> b!14624 (= e!8295 (and (bvsge (select (arr!507 (array!1151 (store (arr!507 iq!76) i!142 (ite (= carry!33 #b00000000000000000000000000000000) (ite (not (= lt!7759 #b00000000000000000000000000000000)) (bvsub #b00000001000000000000000000000000 lt!7759) #b00000000000000000000000000000000) (bvsub #b00000000111111111111111111111111 lt!7759))) (size!507 iq!76))) (bvsub jz!20 #b00000000000000000000000000000001)) #b00000000100000000000000000000000) (or (= (ite (and (= carry!33 #b00000000000000000000000000000000) (not (= lt!7759 #b00000000000000000000000000000000))) #b00000000000000000000000000000001 carry!33) #b00000000000000000000000000000000) (= (ite (and (= carry!33 #b00000000000000000000000000000000) (not (= lt!7759 #b00000000000000000000000000000000))) #b00000000000000000000000000000001 carry!33) #b00000000000000000000000000000001)) (bvslt lt!7761 (bvsub jz!20 #b00000000000000000000000000000001))))))

(declare-fun b!14625 () Bool)

(declare-fun res!11298 () Bool)

(assert (=> b!14625 (=> (not res!11298) (not e!8295))))

(assert (=> b!14625 (= res!11298 (iqInv!0 (array!1151 (store (arr!507 iq!76) i!142 (ite (= carry!33 #b00000000000000000000000000000000) (ite (not (= lt!7759 #b00000000000000000000000000000000)) (bvsub #b00000001000000000000000000000000 lt!7759) #b00000000000000000000000000000000) (bvsub #b00000000111111111111111111111111 lt!7759))) (size!507 iq!76))))))

(declare-fun b!14626 () Bool)

(declare-fun Unit!1580 () Unit!1576)

(assert (=> b!14626 (= e!8294 (tuple4!395 Unit!1580 lt!7803 lt!7796 lt!7802))))

(declare-fun b!14627 () Bool)

(declare-fun res!11295 () Bool)

(assert (=> b!14627 (=> (not res!11295) (not e!8296))))

(declare-fun lt!7798 () (_ BitVec 32))

(assert (=> b!14627 (= res!11295 (bvsge (select (arr!507 (_3!328 lt!7797)) lt!7798) #b00000000100000000000000000000000))))

(assert (=> b!14627 (and (bvsge lt!7798 #b00000000000000000000000000000000) (bvslt lt!7798 (size!507 (_3!328 lt!7797))))))

(assert (=> b!14627 (= lt!7798 (bvsub jz!20 #b00000000000000000000000000000001))))

(assert (=> b!14627 (or (= (bvand jz!20 #b10000000000000000000000000000000) #b00000000000000000000000000000000) (= (bvand jz!20 #b10000000000000000000000000000000) (bvand (bvsub jz!20 #b00000000000000000000000000000001) #b10000000000000000000000000000000)))))

(declare-fun b!14628 () Bool)

(assert (=> b!14628 (= e!8294 (computeModuloWhile!3 jz!20 q!31 lt!7803 lt!7796 lt!7802))))

(declare-fun b!14629 () Bool)

(assert (=> b!14629 (= e!8296 (bvsge (_2!391 lt!7797) (bvsub jz!20 #b00000000000000000000000000000001)))))

(assert (=> b!14629 (or (= (bvand jz!20 #b10000000000000000000000000000000) #b00000000000000000000000000000000) (= (bvand jz!20 #b10000000000000000000000000000000) (bvand (bvsub jz!20 #b00000000000000000000000000000001) #b10000000000000000000000000000000)))))

(declare-fun b!14630 () Bool)

(declare-fun Unit!1581 () Unit!1576)

(assert (=> b!14630 (= e!8297 (tuple4!393 Unit!1581 lt!7800 jz!20 lt!7795))))

(declare-fun b!14631 () Bool)

(assert (=> b!14631 (= e!8297 (computeModuloWhile!0 jz!20 q!31 lt!7800 jz!20 lt!7795))))

(declare-fun b!14632 () Bool)

(declare-fun res!11294 () Bool)

(assert (=> b!14632 (=> (not res!11294) (not e!8296))))

(assert (=> b!14632 (= res!11294 (or (= (_4!197 lt!7797) #b00000000000000000000000000000000) (= (_4!197 lt!7797) #b00000000000000000000000000000001)))))

(assert (= (and d!5861 c!1876) b!14631))

(assert (= (and d!5861 (not c!1876)) b!14630))

(assert (= (and d!5861 res!11297) b!14625))

(assert (= (and b!14625 res!11298) b!14624))

(assert (= (and d!5861 c!1877) b!14628))

(assert (= (and d!5861 (not c!1877)) b!14626))

(assert (= (and d!5861 res!11293) b!14623))

(assert (= (and b!14623 res!11296) b!14627))

(assert (= (and b!14627 res!11295) b!14632))

(assert (= (and b!14632 res!11294) b!14629))

(declare-fun m!22103 () Bool)

(assert (=> b!14628 m!22103))

(declare-fun m!22105 () Bool)

(assert (=> b!14624 m!22105))

(declare-fun m!22107 () Bool)

(assert (=> d!5861 m!22107))

(declare-fun m!22109 () Bool)

(assert (=> d!5861 m!22109))

(assert (=> d!5861 m!22087))

(declare-fun m!22111 () Bool)

(assert (=> b!14625 m!22111))

(declare-fun m!22113 () Bool)

(assert (=> b!14631 m!22113))

(declare-fun m!22115 () Bool)

(assert (=> b!14623 m!22115))

(declare-fun m!22117 () Bool)

(assert (=> b!14627 m!22117))

(assert (=> b!14573 d!5861))

(declare-fun d!5863 () Bool)

(declare-fun res!11301 () Bool)

(declare-fun e!8300 () Bool)

(assert (=> d!5863 (=> (not res!11301) (not e!8300))))

(assert (=> d!5863 (= res!11301 (= (size!507 (_3!328 lt!7756)) #b00000000000000000000000000010100))))

(assert (=> d!5863 (= (iqInv!0 (_3!328 lt!7756)) e!8300)))

(declare-fun b!14635 () Bool)

(declare-fun lambda!629 () Int)

(declare-fun all20Int!0 (array!1150 Int) Bool)

(assert (=> b!14635 (= e!8300 (all20Int!0 (_3!328 lt!7756) lambda!629))))

(assert (= (and d!5863 res!11301) b!14635))

(declare-fun m!22119 () Bool)

(assert (=> b!14635 m!22119))

(assert (=> b!14578 d!5863))

(declare-fun d!5865 () Bool)

(assert (=> d!5865 (= (array_inv!455 q!31) (bvsge (size!508 q!31) #b00000000000000000000000000000000))))

(assert (=> start!2659 d!5865))

(declare-fun d!5867 () Bool)

(assert (=> d!5867 (= (array_inv!456 iq!76) (bvsge (size!507 iq!76) #b00000000000000000000000000000000))))

(assert (=> start!2659 d!5867))

(declare-fun bs!2644 () Bool)

(declare-fun b!14636 () Bool)

(assert (= bs!2644 (and b!14636 b!14635)))

(declare-fun lambda!630 () Int)

(assert (=> bs!2644 (= lambda!630 lambda!629)))

(declare-fun d!5869 () Bool)

(declare-fun res!11302 () Bool)

(declare-fun e!8301 () Bool)

(assert (=> d!5869 (=> (not res!11302) (not e!8301))))

(assert (=> d!5869 (= res!11302 (= (size!507 iq!76) #b00000000000000000000000000010100))))

(assert (=> d!5869 (= (iqInv!0 iq!76) e!8301)))

(assert (=> b!14636 (= e!8301 (all20Int!0 iq!76 lambda!630))))

(assert (= (and d!5869 res!11302) b!14636))

(declare-fun m!22121 () Bool)

(assert (=> b!14636 m!22121))

(assert (=> b!14576 d!5869))

(check-sat (not b!14602) (not b!14636) (not b!14631) (not b!14635) (not b!14598) (not b!14628) (not b!14595) (not b!14623) (not b!14594) (not b!14625))
(check-sat)
